knapPI_6_1000_10000_42
n 1000
c 359165
z 359165
time 3.9
1,5984,5984,1
2,7284,7284,1
3,9082,9082,1
4,8438,8438,1
5,5187,5187,1
6,9084,9084,1
7,1810,1810,1
8,1113,1113,1
9,3855,3855,1
10,5795,5795,1
11,8377,8377,1
12,5753,5753,1
13,9417,9417,1
14,8408,8408,1
15,4550,4550,1
16,1630,1630,1
17,8517,8517,1
18,5624,5624,1
19,9922,9922,1
20,9459,9459,1
21,9502,9502,1
22,928,928,1
23,407,407,1
24,5275,5275,1
25,9829,9829,1
26,9514,9514,1
27,4707,4707,1
28,1903,1903,1
29,3015,3015,1
30,777,777,1
31,672,672,1
32,8360,8360,1
33,216,216,1
34,9623,9623,1
35,8051,8051,1
36,1817,1817,1
37,9078,9078,1
38,5080,5080,1
39,3706,3706,1
40,9874,9874,1
41,6006,6006,1
42,3665,3665,1
43,4735,4735,1
44,1050,1050,1
45,9288,9288,1
46,1208,1208,1
47,1469,1469,1
48,4882,4882,1
49,3277,3277,1
50,9117,9117,1
51,8563,8563,1
52,362,362,1
53,640,640,1
54,9602,9602,1
55,6629,6629,1
56,2624,2624,1
57,7418,7418,1
58,368,368,1
59,8254,8254,1
60,1557,1557,1
61,9697,9697,1
62,3309,3309,1
63,9187,9187,1
64,7306,7306,1
65,529,529,1
66,4636,4636,1
67,6039,6039,1
68,5819,5819,1
69,2109,2109,1
70,4282,4282,1
71,708,708,1
72,4725,4725,1
73,181,181,1
74,9614,9614,1
75,697,697,1
76,5887,5887,1
77,2054,2054,1
78,5783,5783,1
79,3970,3970,1
80,9882,9882,1
81,5753,5753,1
82,5054,5054,1
83,8295,8295,1
84,9125,9125,1
85,7932,7932,1
86,6471,6471,1
87,2423,2423,1
88,729,729,1
89,8529,8529,1
90,2501,2501,1
91,6619,6619,1
92,6543,6543,1
93,5755,5755,1
94,111,111,1
95,9556,9556,1
96,7304,7304,1
97,4614,4614,1
98,2260,2260,1
99,1016,1016,1
100,8413,8413,1
101,2811,2811,1
102,7644,7644,1
103,6521,6521,1
104,4457,4457,1
105,897,897,1
106,5961,5961,1
107,4340,4340,1
108,5232,5232,1
109,4563,4563,1
110,4211,4211,1
111,3774,3774,1
112,5539,5539,1
113,5103,5103,1
114,226,226,1
115,9194,9194,1
116,5090,5090,1
117,3773,3773,1
118,5385,5385,1
119,4010,4010,1
120,2125,2125,1
121,2837,2837,1
122,2945,2945,1
123,1014,1014,1
124,2085,2085,1
125,1023,1023,1
126,6269,6269,1
127,962,962,1
128,2468,2468,1
129,9504,9504,1
130,6996,6996,1
131,3144,3144,1
132,1124,1124,1
133,7804,7804,1
134,7820,7820,1
135,2964,2964,1
136,4625,4625,1
137,7413,7413,1
138,6917,6917,1
139,8693,8693,1
140,3393,3393,1
141,6077,6077,1
142,9442,9442,1
143,2021,2021,1
144,3982,3982,1
145,8529,8529,1
146,5671,5671,1
147,5481,5481,1
148,7041,7041,1
149,8425,8425,1
150,6984,6984,1
151,2179,2179,1
152,2089,2089,1
153,433,433,1
154,3660,3660,1
155,1354,1354,1
156,8248,8248,1
157,3187,3187,1
158,2670,2670,1
159,6010,6010,1
160,7607,7607,1
161,3530,3530,1
162,2493,2493,1
163,9101,9101,1
164,1709,1709,1
165,1375,1375,1
166,580,580,1
167,5481,5481,1
168,4182,4182,1
169,9439,9439,1
170,3793,3793,1
171,1748,1748,1
172,2034,2034,1
173,3181,3181,1
174,3768,3768,1
175,7501,7501,1
176,1358,1358,1
177,1319,1319,1
178,4557,4557,1
179,5517,5517,1
180,5214,5214,1
181,2302,2302,1
182,6488,6488,1
183,8312,8312,1
184,3288,3288,1
185,795,795,1
186,1838,1838,1
187,6749,6749,1
188,6393,6393,1
189,5622,5622,1
190,9099,9099,1
191,9206,9206,1
192,6768,6768,1
193,2846,2846,1
194,207,207,1
195,4361,4361,1
196,5419,5419,1
197,8250,8250,1
198,3048,3048,1
199,9140,9140,1
200,1415,1415,1
201,3951,3951,1
202,32,32,1
203,6957,6957,1
204,2500,2500,1
205,3266,3266,1
206,5575,5575,1
207,6360,6360,1
208,3704,3704,1
209,7602,7602,1
210,4839,4839,1
211,459,459,1
212,8003,8003,1
213,7652,7652,1
214,2263,2263,1
215,3961,3961,1
216,1412,1412,1
217,3915,3915,1
218,8792,8792,1
219,2878,2878,1
220,9269,9269,1
221,7683,7683,1
222,8101,8101,1
223,6393,6393,1
224,6998,6998,1
225,7522,7522,1
226,1771,1771,1
227,5206,5206,1
228,3396,3396,1
229,3291,3291,1
230,6749,6749,1
231,6147,6147,1
232,6785,6785,1
233,2488,2488,1
234,3873,3873,1
235,6034,6034,1
236,9664,9664,1
237,4177,4177,1
238,5547,5547,1
239,7236,7236,1
240,4685,4685,1
241,2159,2159,1
242,9626,9626,1
243,251,251,1
244,8631,8631,1
245,7448,7448,1
246,3541,3541,1
247,2934,2934,1
248,8380,8380,1
249,5228,5228,1
250,2896,2896,1
251,9608,9608,1
252,5619,5619,1
253,6883,6883,1
254,3740,3740,1
255,2730,2730,1
256,599,599,1
257,603,603,1
258,8657,8657,1
259,6504,6504,1
260,1127,1127,1
261,7901,7901,1
262,1589,1589,1
263,8358,8358,1
264,2444,2444,1
265,9505,9505,1
266,7264,7264,1
267,7268,7268,1
268,1098,1098,1
269,35,35,1
270,2527,2527,1
271,7905,7905,1
272,6381,6381,1
273,7287,7287,1
274,4185,4185,1
275,4042,4042,1
276,7216,7216,1
277,7671,7671,1
278,138,138,1
279,583,583,1
280,5030,5030,1
281,7479,7479,1
282,9386,9386,1
283,7094,7094,1
284,8478,8478,1
285,971,971,1
286,5270,5270,1
287,5551,5551,1
288,6094,6094,1
289,4922,4922,1
290,2661,2661,1
291,6838,6838,1
292,5894,5894,1
293,7459,7459,1
294,4829,4829,1
295,3112,3112,1
296,8076,8076,1
297,1656,1656,1
298,7878,7878,1
299,1781,1781,1
300,6420,6420,1
301,3397,3397,1
302,8197,8197,1
303,8412,8412,1
304,1897,1897,1
305,9689,9689,1
306,2914,2914,1
307,5043,5043,1
308,479,479,1
309,2002,2002,1
310,7797,7797,1
311,8116,8116,1
312,3555,3555,1
313,1099,1099,1
314,6024,6024,1
315,4995,4995,1
316,6666,6666,1
317,2487,2487,1
318,7615,7615,1
319,1903,1903,1
320,1391,1391,1
321,3403,3403,1
322,9572,9572,1
323,3729,3729,1
324,4094,4094,1
325,9779,9779,1
326,1419,1419,1
327,3629,3629,1
328,8575,8575,1
329,2973,2973,1
330,9798,9798,1
331,5612,5612,1
332,1873,1873,1
333,2618,2618,1
334,1917,1917,1
335,2532,2532,1
336,5407,5407,1
337,9977,9977,1
338,662,662,1
339,5438,5438,1
340,6388,6388,1
341,9627,9627,1
342,3113,3113,1
343,1092,1092,1
344,2331,2331,1
345,8802,8802,1
346,5032,5032,1
347,6864,6864,1
348,9208,9208,1
349,8563,8563,1
350,4496,4496,1
351,7667,7667,1
352,1850,1850,1
353,9967,9967,1
354,1018,1018,1
355,6228,6228,1
356,2454,2454,1
357,77,77,1
358,2226,2226,1
359,3620,3620,1
360,6282,6282,1
361,3964,3964,1
362,512,512,1
363,6804,6804,1
364,9295,9295,1
365,7125,7125,1
366,5808,5808,1
367,3014,3014,1
368,8191,8191,1
369,1556,1556,1
370,7923,7923,1
371,8929,8929,1
372,613,613,1
373,7999,7999,1
374,5229,5229,1
375,3211,3211,1
376,7106,7106,1
377,3379,3379,1
378,772,772,1
379,8342,8342,1
380,2434,2434,1
381,937,937,1
382,7845,7845,1
383,7831,7831,1
384,5446,5446,1
385,3940,3940,1
386,1215,1215,1
387,566,566,1
388,8749,8749,1
389,5687,5687,1
390,9223,9223,1
391,4789,4789,1
392,1416,1416,1
393,127,127,1
394,8416,8416,1
395,3352,3352,1
396,1955,1955,1
397,748,748,1
398,7837,7837,1
399,2372,2372,1
400,1320,1320,1
401,4772,4772,1
402,2686,2686,1
403,3952,3952,1
404,1002,1002,1
405,8603,8603,1
406,5008,5008,1
407,9918,9918,1
408,6577,6577,1
409,9292,9292,1
410,2003,2003,1
411,8530,8530,1
412,116,116,1
413,4442,4442,1
414,447,447,1
415,4957,4957,1
416,5988,5988,1
417,7679,7679,1
418,4799,4799,1
419,9643,9643,1
420,4099,4099,1
421,763,763,1
422,5776,5776,1
423,7935,7935,1
424,2644,2644,1
425,22,22,1
426,278,278,1
427,8841,8841,1
428,8927,8927,1
429,758,758,1
430,4343,4343,1
431,6186,6186,1
432,9132,9132,1
433,9081,9081,1
434,9280,9280,1
435,4330,4330,1
436,6562,6562,1
437,913,913,1
438,747,747,1
439,5642,5642,1
440,3065,3065,1
441,954,954,1
442,8090,8090,1
443,4845,4845,1
444,3758,3758,1
445,2132,2132,1
446,7218,7218,1
447,2024,2024,1
448,209,209,1
449,6311,6311,1
450,2961,2961,1
451,9000,9000,1
452,6509,6509,1
453,6410,6410,1
454,9043,9043,1
455,2307,2307,1
456,6627,6627,1
457,3023,3023,1
458,8280,8280,1
459,7198,7198,1
460,7942,7942,1
461,7929,7929,1
462,6602,6602,1
463,3313,3313,1
464,580,580,1
465,2466,2466,1
466,5775,5775,1
467,9814,9814,1
468,1460,1460,1
469,6011,6011,1
470,9172,9172,1
471,5267,5267,1
472,3559,3559,1
473,85,85,1
474,6647,6647,1
475,9928,9928,1
476,7573,7573,1
477,6147,6147,1
478,1463,1463,1
479,7563,7563,1
480,4416,4416,1
481,8882,8882,1
482,9261,9261,1
483,6626,6626,1
484,6957,6957,1
485,3465,3465,1
486,1323,1323,1
487,6568,6568,1
488,5372,5372,1
489,9365,9365,1
490,3042,3042,1
491,9172,9172,1
492,1622,1622,1
493,3420,3420,1
494,5225,5225,1
495,2336,2336,1
496,4382,4382,1
497,5761,5761,1
498,2039,2039,1
499,1390,1390,1
500,3808,3808,1
501,4639,4639,1
502,5779,5779,1
503,7506,7506,1
504,7386,7386,1
505,1497,1497,1
506,5666,5666,1
507,8522,8522,1
508,8009,8009,1
509,8550,8550,1
510,7627,7627,1
511,9554,9554,1
512,7770,7770,1
513,8921,8921,1
514,7645,7645,1
515,2170,2170,1
516,7286,7286,1
517,6655,6655,1
518,7477,7477,1
519,4966,4966,1
520,5110,5110,1
521,9434,9434,1
522,7534,7534,1
523,8431,8431,1
524,6318,6318,1
525,7210,7210,1
526,1661,1661,1
527,2254,2254,1
528,2090,2090,1
529,9892,9892,1
530,2149,2149,1
531,2525,2525,1
532,647,647,1
533,347,347,1
534,9247,9247,1
535,7306,7306,1
536,4955,4955,1
537,5730,5730,1
538,6737,6737,1
539,3739,3739,1
540,4233,4233,1
541,3884,3884,1
542,4314,4314,1
543,272,272,1
544,7604,7604,1
545,5894,5894,1
546,7498,7498,1
547,123,123,1
548,4415,4415,1
549,8493,8493,1
550,8558,8558,1
551,1241,1241,1
552,3365,3365,1
553,5299,5299,1
554,8487,8487,1
555,6486,6486,1
556,920,920,1
557,1780,1780,1
558,1880,1880,1
559,4239,4239,1
560,7801,7801,1
561,9091,9091,1
562,1253,1253,1
563,4665,4665,1
564,3791,3791,1
565,3977,3977,1
566,4827,4827,1
567,4409,4409,1
568,2331,2331,1
569,9933,9933,1
570,1091,1091,1
571,7121,7121,1
572,7798,7798,1
573,2504,2504,1
574,932,932,1
575,8327,8327,1
576,3327,3327,1
577,3867,3867,1
578,3946,3946,1
579,4863,4863,1
580,530,530,1
581,8601,8601,1
582,4056,4056,1
583,707,707,1
584,5396,5396,1
585,451,451,1
586,5971,5971,1
587,7374,7374,1
588,1380,1380,1
589,8573,8573,1
590,9129,9129,1
591,1477,1477,1
592,6567,6567,1
593,4904,4904,1
594,5711,5711,1
595,3450,3450,1
596,4635,4635,1
597,8396,8396,1
598,6751,6751,1
599,9315,9315,1
600,9483,9483,1
601,5110,5110,1
602,2390,2390,1
603,7647,7647,1
604,4946,4946,1
605,4891,4891,1
606,1739,1739,1
607,9377,9377,1
608,1233,1233,1
609,2045,2045,1
610,877,877,1
611,864,864,1
612,9621,9621,1
613,482,482,1
614,2389,2389,1
615,6841,6841,1
616,3025,3025,1
617,9739,9739,1
618,2465,2465,1
619,8335,8335,1
620,1492,1492,1
621,9881,9881,1
622,2787,2787,1
623,4289,4289,1
624,4032,4032,1
625,3246,3246,1
626,3578,3578,1
627,755,755,1
628,545,545,1
629,900,900,1
630,5319,5319,1
631,2294,2294,1
632,810,810,1
633,8886,8886,1
634,7107,7107,1
635,6871,6871,1
636,6281,6281,1
637,4394,4394,1
638,1183,1183,1
639,1428,1428,1
640,7598,7598,1
641,7309,7309,1
642,5011,5011,1
643,2432,2432,1
644,3843,3843,1
645,5463,5463,1
646,2731,2731,1
647,6504,6504,1
648,3952,3952,1
649,9087,9087,1
650,8839,8839,1
651,3039,3039,1
652,5724,5724,1
653,914,914,1
654,5777,5777,1
655,2846,2846,1
656,9608,9608,1
657,8274,8274,1
658,985,985,1
659,8906,8906,1
660,3342,3342,1
661,2704,2704,1
662,1174,1174,1
663,9882,9882,1
664,238,238,1
665,4201,4201,1
666,6657,6657,1
667,523,523,1
668,7045,7045,1
669,6857,6857,1
670,7822,7822,1
671,6256,6256,1
672,2907,2907,1
673,149,149,1
674,1338,1338,1
675,4297,4297,1
676,6358,6358,1
677,5189,5189,1
678,6045,6045,1
679,2932,2932,1
680,857,857,1
681,690,690,1
682,2569,2569,1
683,2872,2872,1
684,5579,5579,1
685,5710,5710,1
686,660,660,1
687,1880,1880,1
688,2313,2313,1
689,2295,2295,1
690,6475,6475,1
691,2137,2137,1
692,740,740,1
693,8258,8258,1
694,1486,1486,1
695,7290,7290,1
696,1736,1736,1
697,9323,9323,1
698,7589,7589,1
699,2411,2411,1
700,3583,3583,1
701,6368,6368,1
702,8784,8784,1
703,7475,7475,1
704,8267,8267,1
705,2868,2868,1
706,3190,3190,1
707,507,507,1
708,7315,7315,1
709,8401,8401,1
710,937,937,1
711,6592,6592,1
712,7113,7113,1
713,2934,2934,1
714,8541,8541,1
715,6606,6606,1
716,6385,6385,1
717,3747,3747,1
718,450,450,1
719,2893,2893,1
720,5850,5850,1
721,7254,7254,1
722,2932,2932,1
723,201,201,1
724,3458,3458,1
725,5379,5379,1
726,7555,7555,1
727,2840,2840,1
728,7689,7689,1
729,4014,4014,1
730,5973,5973,1
731,7236,7236,1
732,6957,6957,1
733,4580,4580,1
734,7735,7735,1
735,6325,6325,1
736,8602,8602,1
737,4607,4607,1
738,3546,3546,1
739,2457,2457,1
740,8157,8157,1
741,9761,9761,1
742,4485,4485,1
743,9989,9989,1
744,3356,3356,1
745,7691,7691,1
746,8730,8730,1
747,9746,9746,1
748,3699,3699,1
749,6535,6535,1
750,7223,7223,1
751,7888,7888,1
752,6585,6585,1
753,8069,8069,1
754,4545,4545,1
755,6296,6296,1
756,8727,8727,1
757,3128,3128,1
758,2453,2453,1
759,2516,2516,1
760,6122,6122,1
761,333,333,1
762,5609,5609,1
763,6300,6300,1
764,386,386,1
765,9500,9500,1
766,2317,2317,1
767,6709,6709,1
768,6939,6939,1
769,8267,8267,1
770,6164,6164,1
771,6026,6026,1
772,1043,1043,1
773,6038,6038,1
774,5892,5892,1
775,8440,8440,1
776,8099,8099,1
777,5859,5859,1
778,5350,5350,1
779,4059,4059,1
780,3438,3438,1
781,6733,6733,1
782,7038,7038,1
783,7228,7228,1
784,6332,6332,1
785,8031,8031,1
786,7295,7295,1
787,783,783,1
788,5660,5660,1
789,8092,8092,1
790,9362,9362,1
791,1912,1912,1
792,3821,3821,1
793,7348,7348,1
794,3322,3322,1
795,9421,9421,1
796,6426,6426,1
797,3529,3529,1
798,9529,9529,1
799,5195,5195,1
800,8292,8292,1
801,8869,8869,1
802,1516,1516,1
803,2841,2841,1
804,448,448,1
805,9799,9799,1
806,63,63,1
807,6088,6088,1
808,4856,4856,1
809,4462,4462,1
810,7433,7433,1
811,5728,5728,1
812,3002,3002,1
813,9034,9034,1
814,1600,1600,1
815,5159,5159,1
816,4270,4270,1
817,2173,2173,1
818,8084,8084,1
819,521,521,1
820,3273,3273,1
821,3714,3714,1
822,4001,4001,1
823,6131,6131,1
824,3679,3679,1
825,9075,9075,1
826,654,654,1
827,3193,3193,1
828,5461,5461,1
829,8173,8173,1
830,5474,5474,1
831,6893,6893,1
832,4001,4001,1
833,9297,9297,1
834,8281,8281,1
835,2445,2445,1
836,5899,5899,1
837,2764,2764,1
838,3145,3145,1
839,2393,2393,1
840,4124,4124,1
841,1063,1063,1
842,4127,4127,1
843,3255,3255,1
844,1202,1202,1
845,6259,6259,1
846,5224,5224,1
847,4730,4730,1
848,3177,3177,1
849,7440,7440,1
850,5420,5420,1
851,12,12,1
852,1848,1848,1
853,961,961,1
854,490,490,1
855,1856,1856,1
856,117,117,1
857,9350,9350,1
858,4036,4036,1
859,3105,3105,1
860,2839,2839,1
861,6828,6828,1
862,3270,3270,1
863,3011,3011,1
864,3618,3618,1
865,7402,7402,1
866,6653,6653,1
867,1585,1585,1
868,3414,3414,1
869,4165,4165,1
870,5560,5560,1
871,2743,2743,1
872,2495,2495,1
873,5075,5075,1
874,711,711,1
875,7717,7717,1
876,8615,8615,1
877,3230,3230,1
878,6431,6431,1
879,5161,5161,1
880,8915,8915,1
881,3087,3087,1
882,3390,3390,1
883,7616,7616,1
884,7734,7734,1
885,9749,9749,1
886,8725,8725,1
887,4640,4640,1
888,8332,8332,1
889,5722,5722,1
890,5146,5146,1
891,35,35,1
892,6241,6241,1
893,5017,5017,1
894,4190,4190,1
895,8906,8906,1
896,1675,1675,1
897,881,881,1
898,3617,3617,1
899,3528,3528,1
900,4450,4450,1
901,9759,9759,1
902,5289,5289,1
903,3899,3899,1
904,4883,4883,1
905,545,545,1
906,5496,5496,1
907,8375,8375,1
908,6992,6992,1
909,5303,5303,1
910,1770,1770,1
911,3248,3248,1
912,5253,5253,1
913,244,244,1
914,8606,8606,1
915,3418,3418,1
916,9245,9245,1
917,7942,7942,1
918,9817,9817,1
919,1702,1702,1
920,2384,2384,1
921,40,40,1
922,7014,7014,1
923,3535,3535,1
924,8966,8966,1
925,2,2,1
926,3001,3001,1
927,9663,9663,1
928,131,131,1
929,750,750,1
930,2203,2203,1
931,638,638,1
932,7898,7898,1
933,3407,3407,1
934,6523,6523,1
935,3450,3450,1
936,8344,8344,1
937,6693,6693,1
938,4096,4096,1
939,8857,8857,1
940,8636,8636,1
941,8822,8822,1
942,3346,3346,1
943,5676,5676,1
944,1109,1109,1
945,1745,1745,1
946,185,185,1
947,9558,9558,1
948,5670,5670,1
949,1864,1864,1
950,8933,8933,1
951,7355,7355,1
952,3550,3550,1
953,8523,8523,1
954,5856,5856,1
955,2169,2169,1
956,3918,3918,1
957,3213,3213,1
958,768,768,1
959,8115,8115,1
960,4237,4237,1
961,555,555,1
962,1733,1733,1
963,7105,7105,1
964,6571,6571,1
965,8964,8964,1
966,8608,8608,1
967,9184,9184,1
968,9562,9562,1
969,4796,4796,1
970,113,113,1
971,6011,6011,1
972,1076,1076,1
973,9812,9812,1
974,5938,5938,1
975,2682,2682,1
976,4161,4161,1
977,761,761,1
978,210,210,1
979,4861,4861,1
980,9670,9670,1
981,5408,5408,1
982,9924,9924,1
983,115,115,1
984,8611,8611,1
985,4953,4953,1
986,2897,2897,1
987,2479,2479,1
988,2619,2619,1
989,7783,7783,1
990,9206,9206,1
991,4553,4553,1
992,1154,1154,1
993,3580,3580,1
994,5113,5113,1
995,8777,8777,1
996,553,553,1
997,6494,6494,1
998,1295,1295,1
999,4439,4439,1
1000,3736,3736,1
